m = 4; % number of couriers
n = 5; % number of packages

l = [4, 4, 2, 4]; % maximum carriable weight per courier
s = [2, 2, 3, 2, 1]; % weight of each package

D = % distance matrix 
	 [| 4, 2, 3, 3, 3, 3
	 | 2, 3, 4, 1, 3, 4
	 | 3, 3, 3, 1, 3, 1
	 | 4, 4, 3, 2, 4, 2
	 | 4, 4, 1, 3, 2, 1
	 | 1, 2, 4, 4, 2, 3
	 |];